4
Properties=species:S:1:pos:R:3 name=BH3 smiles=B pbc="F F F"
B        0.00000773       0.00000439       0.00287556
H       -0.75608319      -0.90738666       0.00271736
H       -0.40778201       1.10847989      -0.00176927
H        1.16385747      -0.20109762      -0.00382365
13
Properties=species:S:1:pos:R:3 name=BMe3 smiles=CB(C)C pbc="F F F"
C        1.48574099      -0.54086943       0.06460482
B       -0.00657312       0.00543633      -0.00065559
C       -1.21877142      -1.01908989       0.12435856
C       -0.27217791       1.56447349      -0.18950744
H        1.65058252      -1.26527564      -0.75946931
H        1.65175908      -1.04737582       1.03770558
H        2.20662964       0.29677005      -0.03742772
H       -1.15756748      -1.54500020       1.09940062
H       -1.15874435      -1.76278728      -0.69682704
H       -2.19004832      -0.48664508       0.06043781
H        0.18566508       2.12097227       0.65414236
H       -1.36098424       1.77622840      -0.21446957
H        0.18448954       1.90316280      -1.14229309
7
Properties=species:S:1:pos:R:3 name=B(OH)3 smiles=OB(O)O pbc="F F F"
O       -1.06586813      -0.73858243      -0.78761320
B        0.11641654       0.01902941      -0.38625729
O        0.06686298       1.47778905      -0.33702071
O        1.35461912      -0.68107800      -0.05525430
H       -1.54858083      -0.91603978       0.05887232
H       -0.21804279       1.68737491       0.58815098
H        1.29459311      -0.84849316       0.91912221
16
Properties=species:S:1:pos:R:3 name=B(OMe)3 smiles=COB(OC)OC pbc="F F F"
C        2.28917857      -0.77480726       0.61970755
O        0.98252452      -0.38355572       0.96713996
B        0.24378007      -0.06373871      -0.26737193
O        0.33844876       1.29027624      -0.84417723
C       -0.64497915       2.10994952      -0.25939126
O       -0.43421597      -1.14134861      -1.01175194
C       -1.73230906      -1.31195246      -0.49520737
H        2.28937657      -1.69625496      -0.00776353
H        2.84379383       0.04854322       0.11247738
H        2.84158026      -1.01454705       1.55147773
H       -1.66904588       1.79115135      -0.55265013
H       -0.54600549       2.15547462       0.85045910
H       -0.50735887       3.14332475      -0.63878074
H       -1.72153292      -1.54400613       0.59551266
H       -2.37450691      -0.42897764      -0.70564475
H       -2.19872834      -2.17953117      -1.00560007
9
Properties=species:S:1:pos:R:3 name=MeB(OH)2 smiles=CB(O)O pbc="F F F"
C       -0.96241005      -0.55826063       0.20972466
B        0.42278538       0.21817572       0.20702249
O        1.67898143      -0.52269300       0.12203829
O        0.44220732       1.67514184       0.30834543
H       -1.50647520      -0.34050447       1.15177762
H       -0.78331327      -1.65074448       0.13343731
H       -1.57383859      -0.22573506      -0.65427567
H        1.86664677      -0.58753486      -0.84837658
H        0.41541621       1.99215494      -0.62969355
8
Properties=species:S:1:pos:R:3 name=H3BNH3 smiles="[BH3-][NH3+]" pbc="F F F"
B       -0.74500251       0.01155102      -0.03370065
N        0.78645182      -0.01219328       0.03557580
H       -1.14666822      -1.03485995      -0.44042533
H       -1.10214791       0.88024036      -0.76825007
H       -1.19495022       0.20801153       1.05289348
H        1.09391184      -0.77485711       0.68028363
H        1.13300565       0.90671876       0.39242093
H        1.17539955      -0.18461133      -0.91879779
12
Properties=species:S:1:pos:R:3 name=borazine smiles=B1NBNBN1 pbc="F F F"
B       -1.27909979      -0.30848712      -0.33443838
N       -0.90634679       1.16921545      -0.45788944
B        0.40737371       1.35809967       0.30436536
N        1.58331093       0.41360291       0.04525883
B        1.03265905      -1.01321292       0.10019515
N       -0.23605899      -1.37275987      -0.67675434
H       -2.26838199      -0.61847316       0.23611364
H       -1.64198818       1.73007331       0.02784496
H        0.47810142       2.15287577       1.17648511
H        1.89178210       0.57968640      -0.93898001
H        1.52022768      -1.79923709       0.83620212
H       -0.58157915      -2.29138336      -0.31840300
8
Properties=species:S:1:pos:R:3 name=vinylborane smiles=C=CB pbc="F F F"
C        1.23917157      -0.19511592       0.05775590
C        0.12119220       0.52090588      -0.07857856
B       -1.29351730      -0.14791212      -0.00544876
H        1.20727645      -1.26835843       0.22445446
H        2.20549999       0.29561784       0.00251902
H        0.18578369       1.59155328      -0.24415292
H       -1.40200697      -1.31127226       0.17362381
H       -2.26339963       0.51458172      -0.13017293
10
Properties=species:S:1:pos:R:3 name=B2(OH)4 smiles=OB(O)B(O)O pbc="F F F"
O        1.20849144       1.01533907      -1.25790098
B        0.80849086       0.02522036      -0.26127551
O        1.82660395      -0.70536715       0.48923571
B       -0.80219351      -0.29018772      -0.00189449
O       -1.82034450       0.43365582      -0.75892899
O       -1.20175562      -1.28957415       0.98564478
H        1.26616039       1.86788212      -0.75675352
H        1.99116903      -0.15219201       1.29436320
H       -1.97795849      -0.12166328      -1.56395467
H       -1.29866355      -0.78311305       1.83146447
16
Properties=species:S:1:pos:R:3 name=PhB(OH)2 smiles=OB(O)c1ccccc1 pbc="F F F"
O        2.70578587       1.26986333       0.44879865
B        2.00137279       0.02102578       0.16393551
O        2.76865553      -1.21235201      -0.00037509
C        0.43081114       0.00452581       0.03528853
C       -0.30673072       1.18984038       0.19540131
C       -1.70057371       1.17241712       0.08068659
C       -2.36657031      -0.02486269      -0.19385119
C       -1.63993922      -1.20751187      -0.35431427
C       -0.24594996      -1.19564682      -0.24067147
H        2.90424736       1.65488483      -0.44199822
H        2.82752164      -1.59466655       0.91150123
H        0.18992337       2.12862296       0.40868502
H       -2.26457674       2.08786868       0.20477846
H       -3.44524344      -0.03619460      -0.28220786
H       -2.15700507      -2.13432036      -0.56696105
H        0.29827145      -2.12349398      -0.36869615
22
Properties=species:S:1:pos:R:3 name=BEt3 smiles=CCB(CC)CC pbc="F F F"
C       -1.53234464       2.13022421       0.27637515
C       -0.74457023       1.44839791      -0.83781371
B       -0.00242501       0.13244024      -0.30663507
C       -0.87019147      -1.14415905       0.12990495
C       -0.53280729      -2.37158370      -0.71019113
C        1.59895799       0.09961177      -0.22050360
C        2.07996647      -0.10041381       1.21289867
H       -0.85545957       2.41943352       1.10919830
H       -2.01354414       3.04855932      -0.12106514
H       -2.32768433       1.45903974       0.66484089
H       -1.43155618       1.16703058      -1.66369411
H        0.00194606       2.16574788      -1.23913262
H       -1.94997874      -0.91533685       0.00843277
H       -0.68396123      -1.36468628       1.20171898
H        0.51981092      -2.68382230      -0.54206687
H       -0.68924817      -2.16027636      -1.79003631
H       -1.19557939      -3.21258469      -0.41637272
H        2.01360810       1.05470493      -0.60617060
H        1.98426462      -0.72186586      -0.85981276
H        1.68632041       0.70349889       1.87178218
H        1.75502426      -1.08938887       1.60051990
H        3.18945155      -0.06457121       1.23782285
3
Properties=species:S:1:pos:R:3 name=H2S smiles=S pbc="F F F"
S       -0.00006029       0.65115324       0.00000000
H       -1.01316976      -0.32566855       0.00000000
H        1.01323005      -0.32548469       0.00000000
6
Properties=species:S:1:pos:R:3 name=CH3SH smiles=CS pbc="F F F"
C       -0.48432743      -0.05037467      -0.04886728
S        1.21745619      -0.56286621      -0.41619549
H       -0.63882861       0.99598277      -0.38437079
H       -1.19275582      -0.71612785      -0.58323804
H       -0.66680219      -0.12028133       1.04342961
H        1.76525787       0.45366730       0.38924199
9
Properties=species:S:1:pos:R:3 name=CH3SCH3 smiles=CSC pbc="F F F"
C        1.29293915      -0.32757281      -0.19623741
S        0.28657824       1.15827725      -0.50295355
C       -1.28008538       0.37952590       0.00073216
H        1.22518781      -0.62092888       0.87210306
H        2.35171491      -0.10439008      -0.44044739
H        0.94512176      -1.16364739      -0.83811044
H       -1.22037539       0.05114153       1.05931487
H       -1.50044062      -0.49157722      -0.65089756
H       -2.10064047       1.11917171      -0.09961245
10
Properties=species:S:1:pos:R:3 name=CH3SSCH3 smiles=CSSC pbc="F F F"
C       -1.75962211       0.29713255       0.32149797
S       -0.63428681      -0.60631499       1.42734170
S        0.98867203       0.73808664       1.08703750
C        1.73012076      -0.30810179      -0.20185031
H       -1.35772670       0.30286631      -0.71257754
H       -1.88645918       1.33982621       0.67997342
H       -2.74814344      -0.20605486       0.32011576
H        2.65950899       0.17309613      -0.56935653
H        1.98164802      -1.30443168       0.21751010
H        1.02628844      -0.42610452      -1.05129726
9
Properties=species:S:1:pos:R:3 name=thiophene smiles=c1ccsc1 pbc="F F F"
C        0.65230057      -0.72543820       0.03610668
C       -0.72929658      -0.62644733      -0.16956620
C       -1.20580857       0.67627606      -0.12643436
S        0.09663493       1.69687074       0.16756995
C        1.27271990       0.49869561       0.24247970
H        1.18572030      -1.66661684       0.03434097
H       -1.36513737      -1.48384480      -0.34544458
H       -2.23567572       0.97875760      -0.25919161
H        2.32854252       0.65174717       0.42013944
4
Properties=species:S:1:pos:R:3 name=H2CS smiles=C=S pbc="F F F"
C       -0.08695692       0.00550361       0.00198372
S        1.34284159      -0.08499393      -0.03062460
H       -0.56871927       0.97699705       0.00995231
H       -0.68716540      -0.89750673       0.01868857
3
Properties=species:S:1:pos:R:3 name=CS2 smiles=S=C=S pbc="F F F"
S       -1.61141964       0.00318828       0.00000000
C       -0.00000001       0.00000004       0.00000000
S        1.61141964      -0.00318832       0.00000000
3
Properties=species:S:1:pos:R:3 name=OCS smiles=O=C=S pbc="F F F"
O       -1.36211424      -0.00550379       0.00000000
C       -0.12464770      -0.00050366       0.00000000
S        1.48676194       0.00600745       0.00000000
10
Properties=species:S:1:pos:R:3 name=DMSO smiles=CS(C)=O pbc="F F F"
C       -1.39448907       0.32892101      -0.07383196
S        0.18751848       0.22609213      -0.92992818
C        1.37940649      -0.07982706       0.38614139
O        0.11213152      -1.10779136      -1.66063610
H       -2.21141472       0.42821928      -0.81790229
H       -1.39701585       1.21562405       0.59300097
H       -1.55740719      -0.58729348       0.53101254
H        1.07850389      -0.97570968       0.96810413
H        1.41998103       0.80052473       1.06012200
H        2.38278541      -0.24875963      -0.05608248
11
Properties=species:S:1:pos:R:3 name=Me2SO2 smiles=CS(C)(=O)=O pbc="F F F"
C        1.36995207      -0.24886092      -0.50244846
S       -0.05935838       0.69991436      -0.03306381
C       -1.31593624      -0.38805551       0.59999073
O       -0.58975293       1.43281088      -1.23273414
O        0.32474001       1.69203515       1.02798752
H        1.08818850      -0.98154355      -1.28658879
H        1.76339082      -0.79015258       0.38259365
H        2.15359319       0.43015750      -0.89729686
H       -2.20738635       0.20415282       0.89268936
H       -1.60131723      -1.12093035      -0.18265999
H       -0.92611347      -0.92952781       1.48652087
3
Properties=species:S:1:pos:R:3 name=SO2 smiles=O=S=O pbc="F F F"
O       -1.15812895      -0.25904609       0.00000000
S       -0.01342244       0.44834716       0.00000000
O        1.17155138      -0.18930108       0.00000000
9
Properties=species:S:1:pos:R:3 name=CH3SO3H smiles=CS(=O)(=O)O pbc="F F F"
C        1.08431977       0.13264563      -0.03089709
S       -0.58261955      -0.48819987      -0.01683232
O       -0.70078741      -1.61407995      -1.00452470
O       -0.92421663      -0.99506727       1.35602771
O       -1.64844755       0.73873747      -0.44624942
H        1.33034289       0.51109046      -1.04440818
H        1.17870947       0.95913342       0.70327664
H        1.78716844      -0.68230432       0.23930162
H       -1.52446942       1.43804444       0.24430573
10
Properties=species:S:1:pos:R:3 name=CH3SO2NH2 smiles=CS(N)(=O)=O pbc="F F F"
C        1.21581769      -0.17695160      -0.08161404
S       -0.33040335       0.68941325       0.07380837
N       -1.63810632      -0.44111521       0.05525680
O       -0.34814348       1.45269225       1.36792613
O       -0.48334838       1.64912907      -1.07214297
H        1.23118379      -0.74016897      -1.03740882
H        1.33102669      -0.88524473       0.76457929
H        2.05297098       0.55114051      -0.06937947
H       -1.56174052      -0.98226291      -0.83501099
H       -1.46925710      -1.11663166       0.83398570
9
Properties=species:S:1:pos:R:3 name=CH3CH2SH smiles=CCS pbc="F F F"
C       -0.88056414      -0.35181515      -0.00867873
C        0.25684007       0.65927297       0.02407043
S        1.74334836      -0.02642129      -0.77041609
H       -1.12203310      -0.62178140      -1.05862509
H       -0.59620620      -1.26846691       0.55011997
H       -1.78360353       0.08832354       0.46420314
H        0.49191935       0.92762350       1.07586533
H       -0.04941854       1.57793807      -0.51919079
H        1.93971773      -0.98467333       0.24265183
13
Properties=species:S:1:pos:R:3 name=PhSH smiles=Sc1ccccc1 pbc="F F F"
S        2.81514945       0.19535526       0.62031222
C        1.05788496       0.07743890       0.30146179
C        0.30098371       1.23941797       0.10569438
C       -1.07237333       1.14635985      -0.14335095
C       -1.69080302      -0.10697257      -0.19676206
C       -0.93616689      -1.26817289      -0.00108872
C        0.43729212      -1.17692640       0.24806571
H        3.12296736       0.13187462      -0.75164262
H        0.77416455       2.21233826       0.14564185
H       -1.65674938       2.04470190      -0.29481986
H       -2.75344508      -0.17827397      -0.38951654
H       -1.41516426      -2.23786510      -0.04249644
H        1.01625980      -2.07927580       0.39850124
16
Properties=species:S:1:pos:R:3 name=PhSO3H smiles=OS(=O)(=O)c1ccccc1 pbc="F F F"
O        2.75475268       0.95178579      -1.15211978
S        2.22277279      -0.12149381       0.02689300
O        2.76368594       0.29180280       1.36720587
O        2.73159706      -1.49955156      -0.29048683
C        0.46242806      -0.13500617       0.06462816
C       -0.23182688       0.75785769       0.89415315
C       -1.63028338       0.75479046       0.91467725
C       -2.34063931      -0.13554629       0.10417882
C       -1.65315504      -1.02206006      -0.72990008
C       -0.25470408      -1.02121637      -0.75256156
H        2.39142793       1.83177933      -0.87838240
H        0.30732785       1.45616537       1.52151213
H       -2.16316863       1.44373525       1.55722383
H       -3.42285336      -0.13658203       0.12035157
H       -2.20376733      -1.70837604      -1.36019964
H        0.26640570      -1.70808435      -1.40717348
37
Properties=species:S:1:pos:R:3 name=coronene_SH smiles=Sc1cc2ccc3ccc4ccc5ccc6ccc1c7c2c3c4c5c67 pbc="F F F"
S        5.06109792       1.62958834       0.05469983
C        3.48662219       0.76011929       0.02930539
C        3.51707329      -0.63982639      -0.01534813
C        2.33080618      -1.38422895      -0.03722874
C        2.36595088      -2.78684982      -0.08210393
C        1.17873108      -3.52597078      -0.10379040
C       -0.06332834      -2.87463727      -0.08101056
C       -1.25988369      -3.60764809      -0.10252627
C       -2.49457740      -2.94997111      -0.07963156
C       -2.55263319      -1.54866851      -0.03486838
C       -3.78627734      -0.88033188      -0.01172083
C       -3.83433279       0.51727211       0.03280107
C       -2.64952615       1.26910846       0.05491338
C       -2.68866829       2.67067191       0.09944848
C       -1.50254626       3.41169097       0.12109711
C       -0.25801003       2.76323190       0.09864090
C        0.93321486       3.49936777       0.11996798
C        2.17060910       2.84933043       0.09748841
C        2.24699456       1.44257597       0.05316019
C        1.04457104       0.69326705       0.03112277
C        1.08862935      -0.71719868      -0.01393588
C       -0.10961914      -1.46364692      -0.03590093
C       -1.35424900      -0.80148260      -0.01288036
C       -1.40205809       0.60688687       0.03200823
C       -0.20448358       1.35394721       0.05394506
H        5.10023548       1.70845081      -1.34995552
H        4.47418496      -1.14852149      -0.03336447
H        3.31301173      -3.31300381      -0.10043933
H        1.23210550      -4.60762825      -0.13841850
H       -1.24074213      -4.69045007      -0.13711184
H       -3.40468823      -3.53768534      -0.09698763
H       -4.71457864      -1.43890059      -0.02810211
H       -4.79888925       1.01059033       0.04991698
H       -3.63719116       3.19412779       0.11749353
H       -1.55854672       4.49325119       0.15542529
H        0.90872827       4.58220768       0.15409096
H        3.06226300       3.46096444       0.11502853
4
Properties=species:S:1:pos:R:3 name=PH3 smiles=P pbc="F F F"
P        0.00786507       0.02731898       0.58520059
H       -0.60065482       1.05900158      -0.23689220
H        1.22200340      -0.02634477      -0.21072087
H       -0.62921364      -1.05997578      -0.13758752
7
Properties=species:S:1:pos:R:3 name=CH3PH2 smiles=CP pbc="F F F"
C       -0.72157680      -0.01775764      -0.04196043
P        0.95394655      -0.14852653       0.75347461
H       -0.60958957       0.25053179      -1.11301679
H       -1.24642481      -0.99162751       0.04093118
H       -1.31482766       0.76505435       0.47380831
H        1.42887348       1.10776315       0.19882330
H        1.50959881      -0.96543761      -0.31206018
13
Properties=species:S:1:pos:R:3 name=PMe3 smiles=CP(C)C pbc="F F F"
C        1.37605207      -0.69823399       0.43725956
P       -0.25405066       0.03321739       0.98036502
C       -1.30622443      -0.89608504      -0.25111728
C       -0.11131700       1.59974361      -0.02603711
H        2.20595899      -0.13385282       0.91011181
H        1.42873267      -1.75725631       0.76369329
H        1.48936410      -0.65298738      -0.66588640
H       -1.36245485      -1.96314028       0.04736356
H       -0.88215311      -0.82791456      -1.27450995
H       -2.32992684      -0.46843418      -0.25396871
H        0.65819621       2.25744624       0.42798783
H       -1.08648784       2.12876338      -0.01975343
H        0.17431069       1.37873394      -1.07550817
14
Properties=species:S:1:pos:R:3 name=OPMe3 smiles=CP(C)(C)=O pbc="F F F"
C        1.69903913      -0.00783517      -0.22718341
P       -0.09596151       0.08129215      -0.47318362
C       -0.85501139      -1.48526058       0.03695583
C       -0.77656066       1.43594161       0.52290650
O       -0.39222618       0.33226946      -1.93405770
H        2.11605279      -0.83627992      -0.83595539
H        1.91695717      -0.19203460       0.84492207
H        2.16402303       0.95003207      -0.53879663
H       -1.95293465      -1.43147964      -0.11302591
H       -0.43910783      -2.31434761      -0.57170041
H       -0.63782130      -1.66987960       1.10913728
H       -0.55934752       1.25215092       1.59522563
H       -1.87445039       1.49099540       0.37313685
H       -0.31265070       2.39443552       0.21161890
8
Properties=species:S:1:pos:R:3 name=H3PO4 smiles=OP(O)(O)=O pbc="F F F"
O        0.23493890       1.28963534       1.12588359
P       -0.07703579      -0.20774237       0.40292916
O        1.29014005      -0.71994943      -0.45253543
O       -1.38900124      -0.06070804      -0.65591807
O       -0.40596671      -1.22118759       1.47500776
H        0.39410547       1.90699813       0.36800991
H        1.40971957      -0.04270825      -1.16519227
H       -1.45690026      -0.94433778      -1.09818466
10
Properties=species:S:1:pos:R:3 name=MePO3H2 smiles=CP(=O)(O)O pbc="F F F"
C        1.22352072      -0.08164888      -0.15332486
P       -0.47366709      -0.33409704       0.43777677
O       -0.47361824      -1.38435805       1.52453777
O       -1.08005683       1.11683856       1.06277844
O       -1.45035550      -0.85453622      -0.84236871
H        1.62011521      -1.03481711      -0.55951675
H        1.22684358       0.68897610      -0.95138146
H        1.86263030       0.25626617       0.68819751
H       -1.05151429       1.75169275       0.30314383
H       -1.40389785      -0.12431627      -1.50984255
17
Properties=species:S:1:pos:R:3 name=PO(OMe)3 smiles=COP(=O)(OC)OC pbc="F F F"
C        1.46700693      -1.65655148       0.42641186
O        1.32974764      -1.09339366      -0.85410473
P       -0.08705165      -0.14418320      -0.86539075
O       -0.30417623       0.38392869      -2.26709546
O        0.06975353       1.15761033       0.22921166
C        1.16131559       1.94540326      -0.17602369
O       -1.41808238      -1.11688260      -0.42445600
C       -2.54875896      -0.28963212      -0.31077366
H        2.40566167      -2.24698508       0.45120302
H        1.54895756      -0.87254156       1.21150779
H        0.63102630      -2.35443951       0.65177354
H        0.98411639       2.39684061      -1.17687694
H        2.10950458       1.36402882      -0.16762591
H        1.27941356       2.77909094       0.54598452
H       -3.42352075      -0.92372407      -0.05959268
H       -2.42756721       0.44746764       0.51296771
H       -2.77734655       0.22396298      -1.27093755
11
Properties=species:S:1:pos:R:3 name=phosphinine smiles=c1ccpcc1 pbc="F F F"
C       -0.12721750       1.11289659       0.04702732
C       -1.29755822       0.32565731       0.06066529
C       -1.29772582      -1.06828863       0.00771649
P        0.21499077      -1.88073665      -0.07946845
C        1.50489525      -0.74402757      -0.08429519
C        1.19020228       0.61348758      -0.02098259
H       -0.25007935       2.18769191       0.09244560
H       -2.25280482       0.83208068       0.11545348
H       -2.22404470      -1.62700299       0.02097434
H        2.53309938      -1.07660334      -0.13522171
H        2.00624273       1.32484510      -0.02431459
6
Properties=species:S:1:pos:R:3 name=P2H4 smiles=PP pbc="F F F"
P        1.02674051      -0.55909881       0.41335635
P       -1.00444969      -0.57962701      -0.43904760
H        0.92215979       0.80690457       0.89727144
H        1.65375338      -0.18782696      -0.84341956
H       -0.95380782       0.80984801      -0.86079595
H       -1.64439617      -0.29019980       0.83263532
6
Properties=species:S:1:pos:R:3 name=H2PNH2 smiles=NP pbc="F F F"
N        0.84362391      -0.42219395      -0.00740993
P       -0.85498019      -0.26492114      -0.57301277
H        0.92755968       0.11543356       0.88460788
H        1.44255811       0.06444451      -0.71125068
H       -0.93197258       1.16068861      -0.29834189
H       -1.42678892      -0.65345158       0.70540740
14
Properties=species:S:1:pos:R:3 name=PhPH2 smiles=Pc1ccccc1 pbc="F F F"
P        2.64677382      -0.56779176       0.14596903
C        0.83566719      -0.27059063       0.05989488
C       -0.05291713      -1.34404581       0.20203037
C       -1.43297518      -1.12511887       0.13758294
C       -1.92822508       0.16619993      -0.06892483
C       -1.04372277       1.23987344      -0.21118618
C        0.33664246       1.02329741      -0.14708718
H        2.94567452       0.21432195      -1.04185736
H        2.89789739       0.53239170       1.06166998
H        0.32267498      -2.34678624       0.36218452
H       -2.11806379      -1.95578693       0.24762838
H       -2.99621348       0.33465321      -0.11865230
H       -1.42757008       2.23916370      -0.37100648
H        1.01435714       1.86021891      -0.25824576
22
Properties=species:S:1:pos:R:3 name=PEt3 smiles=CCP(CC)CC pbc="F F F"
C       -0.94335754       2.24102499      -0.60237707
C       -0.58570790       1.16970293      -1.63432420
P        0.17965907      -0.40940631      -0.93846822
C       -1.15826611      -0.82687735       0.31218717
C       -1.11163771      -2.30793004       0.66099274
C        1.43264956       0.37739906       0.21917503
C        2.37946853      -0.67390527       0.78002292
H       -0.03098633       2.66497333      -0.13682227
H       -1.47150609       3.07247217      -1.11478683
H       -1.61910576       1.84329672       0.18007823
H       -1.50489356       0.88868791      -2.19043848
H        0.12690997       1.60561911      -2.36580030
H       -2.15124557      -0.60941594      -0.13543972
H       -1.05262955      -0.22616260       1.23891339
H       -1.24659833      -2.92102306      -0.25529034
H       -0.14412959      -2.56898080       1.13456594
H       -1.92943609      -2.54791836       1.37269845
H        0.93774764       0.90636802       1.05938266
H        2.02959086       1.11512627      -0.35793466
H        2.85499807      -1.24486720      -0.04546739
H        3.17565123      -0.17685009       1.37328291
H        1.83282519      -1.37133350       1.44585005
41
Properties=species:S:1:pos:R:3 name=coronene_PO3H2 smiles=OP(O)(=O)c1cc2ccc3ccc4ccc5ccc6ccc1c7c2c3c4c5c67 pbc="F F F"
O        5.16913715      -0.39596524       1.60027648
P        4.69575337      -0.86827545       0.04560855
O        5.31142594       0.23255552      -1.08278894
O        5.26393340      -2.23955943      -0.24548906
C        2.88887166      -0.88801709      -0.05483562
C        2.25799581      -2.10164495      -0.37256691
C        0.86447253      -2.18975444      -0.46709203
C        0.24605379      -3.40943044      -0.78557527
C       -1.14617264      -3.49605286      -0.87968360
C       -1.94343538      -2.36438447      -0.65687880
C       -3.34155923      -2.44175183      -0.74913970
C       -4.13020978      -1.30833826      -0.52546678
C       -3.53331935      -0.07946344      -0.20596309
C       -4.31658802       1.06248827       0.01999846
C       -3.71306442       2.28369068       0.33805315
C       -2.31662660       2.38248065       0.43523422
C       -1.70421067       3.60329939       0.75367028
C       -0.31205242       3.69263845       0.84840875
C        0.49015841       2.56265773       0.62625950
C        1.88338084       2.64714713       0.71992464
C        2.68007755       1.52125142       0.49844020
C        2.10375217       0.27346599       0.17559973
C        0.69058619       0.18509822       0.07997009
C        0.07558139      -1.04461010      -0.24068301
C       -1.33101273      -1.13247125      -0.33584450
C       -2.12666875       0.00913426      -0.11062506
C       -1.51776652       1.23919069       0.20978660
C       -0.11174722       1.32802966       0.30514661
H        4.71487907      -1.03269818       2.20797975
H        4.93546804      -0.05823377      -1.95179676
H        2.85527126      -2.98812817      -0.54854674
H        0.84023326      -4.29819542      -0.96225382
H       -1.59942804      -4.44869463      -1.12685871
H       -3.82542934      -3.37968477      -0.99449991
H       -5.20768647      -1.39291227      -0.60241253
H       -5.39667337       1.01109065      -0.04930722
H       -4.33892883       3.15167348       0.50818723
H       -2.30221766       4.48958455       0.92956642
H        0.13798922       4.64679560       1.09576486
H        2.36071536       3.58852450       0.96574318
H        3.74906102       1.64746964       0.58468937
3
Properties=species:S:1:pos:R:3 name=H2Se smiles="[SeH2]" pbc="F F F"
Se      -0.00190889       0.72048083       0.00000000
H       -1.09114373      -0.36313394       0.00000000
H        1.09305263      -0.35734689       0.00000000
6
Properties=species:S:1:pos:R:3 name=CH3SeH smiles="C[SeH]" pbc="F F F"
C       -0.52902680      -0.04773086      -0.02821395
Se       1.26221340      -0.61462521      -0.52585464
H       -0.65426341      -0.13637512       1.07060712
H       -1.27478850      -0.69188863      -0.53769177
H       -0.68254774       1.00757350      -0.33434047
H        1.87841304       0.48304631       0.35549371
9
Properties=species:S:1:pos:R:3 name=CH3SeCH3 smiles="C[Se]C" pbc="F F F"
C        1.35356418      -0.34219042      -0.23233315
Se       0.29619478       1.26915705      -0.51096516
C       -1.34491195       0.37926310       0.04307874
H        1.28769926      -0.65718014       0.82962995
H        2.41309324      -0.13139035      -0.48421747
H        0.97904702      -1.15647870      -0.88654675
H       -1.24433349       0.01976834       1.08805257
H       -1.55297998      -0.47952237      -0.62812877
H       -2.18737307       1.09857349      -0.01467867
10
Properties=species:S:1:pos:R:3 name=CH3SeSeCH3 smiles="C[Se][Se]C" pbc="F F F"
C       -1.85736742       0.21934847       0.32355613
Se      -0.69114598      -0.80323342       1.49774707
Se       1.06610810       0.78691683       1.23742982
C        1.82236831      -0.21782560      -0.24683207
H       -1.40418596       0.29403636      -0.68620593
H       -2.00892969       1.23668463       0.73968760
H       -2.83809273      -0.29305793       0.24581103
H        2.73514908       0.29753808      -0.60967889
H        2.09019152      -1.24022026       0.09093831
H        1.08590476      -0.28018717      -1.07405825
9
Properties=species:S:1:pos:R:3 name=selenophene smiles="c1cc[se]c1" pbc="F F F"
C        0.72166980      -0.57329445       0.04709541
C       -0.64724782      -0.64900781      -0.11015927
C       -1.40085115       0.50701672      -0.12679020
Se      -0.11832752       1.96000747       0.10123438
C        1.32909396       0.65800757       0.18680547
H        1.31739120      -1.47712637       0.06083230
H       -1.12863669      -1.61241294      -0.22016098
H       -2.47467541       0.45855418      -0.24950338
H        2.40158364       0.72825563       0.31064628
3
Properties=species:S:1:pos:R:3 name=CSe2 smiles="[Se]=C=[Se]" pbc="F F F"
Se      -1.72580532      -1.04721932       0.00000000
C       -0.04048289      -0.38901947       0.00000000
Se       1.76628821       0.33772529       0.00000000
3
Properties=species:S:1:pos:R:3 name=OCSe smiles="O=C=[Se]" pbc="F F F"
O       -1.40730982       0.30689383       0.00000000
C       -0.19772204       0.04565475       0.00000000
Se       1.60503186      -0.35254858       0.00000000
4
Properties=species:S:1:pos:R:3 name=H2CSe smiles="C=[Se]" pbc="F F F"
C       -0.17757783      -0.00833153       0.00722815
Se       1.61306796      -0.05523436      -0.07067405
H       -0.78873257      -0.90408787      -0.00106587
H       -0.64675756       0.96765376       0.06451177
3
Properties=species:S:1:pos:R:3 name=SeO2 smiles="O=[Se]=O" pbc="F F F"
O       -1.49421282      -0.54551788       0.00000000
Se      -0.05545833      -0.02657760       0.00000000
O        1.54967116       0.57209548       0.00000000
10
Properties=species:S:1:pos:R:3 name=DMSeO smiles="C[Se](C)=O" pbc="F F F"
C       -1.33676476      -0.48009285      -0.09572514
Se       0.27188028      -0.26444914      -1.17827145
C        1.35983345       0.18947129       0.37622637
O       -0.07463449       1.32236182      -1.44961508
H       -2.21431957      -0.59201731      -0.76517420
H       -1.23969052      -1.39209490       0.52861804
H       -1.49434440       0.39914516       0.56348056
H        0.87979664       0.98864310       0.97899676
H        1.49372040      -0.71339110       1.00701193
H        2.35452298       0.54242392       0.03445221
8
Properties=species:S:1:pos:R:3 name=CH3SeO2H smiles="C[Se](=O)O" pbc="F F F"
C       -0.91137452      -0.46058618       0.04283379
Se       0.51079019       0.77456797       0.53798201
O       -0.05876029       1.91448515      -0.50394906
O        1.60482054       0.09021104      -0.77108773
H       -1.02313995      -0.50304849      -1.06093746
H       -0.66560540      -1.47321002       0.42358843
H       -1.86654417      -0.12323656       0.49546710
H        2.40981360      -0.21918291      -0.28454270
8
Properties=species:S:1:pos:R:3 name=CH3SeNH2 smiles="C[Se]N" pbc="F F F"
C       -1.22844553       0.01838144      -0.17370434
Se       0.22646303      -0.79091388       0.83280891
N        1.50116043      -0.09876999      -0.37991935
H       -2.19409479      -0.23379418       0.31054274
H       -1.22657314      -0.37164209      -1.21252010
H       -1.10424983       1.12090533      -0.19049638
H        2.41075676      -0.55896482      -0.15302896
H        1.61498308       0.91479819      -0.15432815
9
Properties=species:S:1:pos:R:3 name=CH3CH2SeH smiles="CC[SeH]" pbc="F F F"
C       -0.84488930      -0.45069403      -0.03090566
C        0.14015346       0.70634902       0.04081982
Se       1.83235457       0.21169862      -0.78869086
H       -1.02914251      -0.72914480      -1.09003592
H       -0.44273049      -1.32999195       0.51514125
H       -1.80751636      -0.15036094       0.43380657
H        0.31989414       0.98189410       1.10144239
H       -0.27904907       1.58513624      -0.49292497
H        2.11092556      -0.82488625       0.31134739
13
Properties=species:S:1:pos:R:3 name=PhSeH smiles="[SeH]c1ccccc1" pbc="F F F"
Se       2.90953867       0.21633792      -0.70485254
C        1.03256697       0.08190676      -0.32846163
C        0.27642281       1.24010476      -0.11138805
C       -1.09155025       1.14140536       0.16381102
C       -1.70488896      -0.11427520       0.22233709
C       -0.95040321      -1.27193545       0.00573323
C        0.41764805      -1.17455752      -0.26954899
H        3.23070536       0.13683614       0.79545215
H        0.74670541       2.21406155      -0.15523902
H       -1.67560700       2.03704244       0.33162890
H       -2.76333974      -0.19013103       0.43534490
H       -1.42525821      -2.24347677       0.05124394
H        0.99746010      -2.07331897      -0.43606100
37
Properties=species:S:1:pos:R:3 name=coronene_SeH smiles="[SeH]c1cc2ccc3ccc4ccc5ccc6ccc1c7c2c3c4c5c67" pbc="F F F"
Se       5.17462587       1.68322089       0.05289909
C        3.47951332       0.76003719       0.05604195
C        3.50898764      -0.63916600       0.11308890
C        2.32252117      -1.38360308       0.11868504
C        2.35652263      -2.78577531       0.17619551
C        1.16887223      -3.52459908       0.18161197
C       -0.07241055      -2.87337684       0.12950539
C       -1.26940201      -3.60599182       0.13443893
C       -2.50324770      -2.94833720       0.08209844
C       -2.56000836      -1.54745333       0.02392702
C       -3.79274412      -0.87909835      -0.02897562
C       -3.83943367       0.51808891      -0.08694833
C       -2.65414862       1.26949126      -0.09293670
C       -2.69181877       2.67062892      -0.15103888
C       -1.50515250       3.41115253      -0.15669294
C       -0.26155927       2.76260799      -0.10423359
C        0.93036428       3.49802898      -0.10975339
C        2.16682474       2.84770567      -0.05728675
C        2.24126271       1.44198393       0.00233821
C        1.03841200       0.69316514       0.00772365
C        1.08116225      -0.71679916       0.06593796
C       -0.11745942      -1.46284876       0.07130670
C       -1.36119625      -0.80069886       0.01849226
C       -1.40764485       0.60723962      -0.03988323
C       -0.20962086       1.35382539      -0.04538603
H        5.21029483       1.63912087      -1.48228977
H        4.46583608      -1.14660612       0.15310615
H        3.30296724      -3.31176268       0.21709329
H        1.22130138      -4.60592115       0.22655258
H       -1.25126030      -4.68845485       0.17878681
H       -3.41370962      -3.53574112       0.08705335
H       -4.72138466      -1.43733188      -0.02557571
H       -4.80329785       1.01141476      -0.12718360
H       -3.63959763       3.19412252      -0.19220975
H       -1.55999323       4.49235788      -0.20216266
H        0.90714766       4.58049607      -0.15486597
H        3.05847422       3.45887705      -0.06423157
