204
Lattice="38.461408635992285 0.0 0.0 0.0 38.30443639802974 0.0 0.0 0.0 15.0" Properties=species:S:1:pos:R:3 pbc="F F T"
C       26.41157137      19.09470883       1.82009421
C       26.21707392      20.02752525       0.76068603
C       23.36360203      17.73960574       2.81594646
C       24.79665759      17.78859244       2.84873879
C       25.46153524      19.06919158       2.86188256
C       25.42000655      21.16528844       0.99705481
C       24.72703219      21.76368954      14.90793083
C       24.27223533      20.92282663      13.82979590
C       22.87038573      21.13697479      13.44377244
C       22.06070496      20.05501330      13.59919423
C       21.36292087      20.03249913      14.85392710
C       21.91308744      19.21670445       0.81159110
C       21.71482068      19.41338496       2.21867643
C       22.71784036      19.00128396       3.08909955
C       23.48109744      20.09913219       3.68127734
C       24.75843711      20.26212398       3.16399687
C       24.96521288      21.39740978       2.32839841
C       24.04497350      22.99256252       0.17555253
C       22.95866289      23.38187318      14.33995613
C       22.17813746      22.35769266      13.82267842
C       20.84566914      22.24652706      14.41485893
C       20.70031678      21.17193507       0.28528239
C       20.62930521      21.44202840       1.69236772
C       21.06012243      20.55738140       2.65003173
C       21.42891947      21.15017373       3.90476280
C       22.77087546      21.30948125       4.06018255
C       23.28724388      22.63023976       3.67415682
C       24.24283050      22.60302024       2.59602007
C       24.07169881      23.50246975       1.50689533
C       22.27792623      24.58770570      14.64207044
C       22.54420825      23.93621537       3.89199062
C       22.79698262      25.00898484       2.95825392
C       23.48576113      24.76203258       1.74326384
C       22.77559847      25.39736425       0.68385647
C       20.07671834      23.43713810      14.68801352
C       20.83650047      24.65318868      14.65521758
C       20.48995011      25.67321092       0.55860729
C       21.68027350      26.08831963       1.24225520
C       21.75183946      25.91895725       2.64664020
C       19.68440243      22.29300176       2.15571809
C       18.56533629      22.39432592       1.40449835
C       18.75939754      23.39463580       0.41005063
C       18.26242794      24.62403723       0.87257142
C       19.27742073      25.57160904       1.28041269
C       19.33622103      25.94453594       2.63529760
C       20.55890832      25.85914574       3.36125857
C       20.57413511      25.31368457       4.67215703
C       21.49476105      24.19854282       4.92299820
C       20.86429303      23.06916502       5.43573651
C       20.63789655      22.21487542       4.34071740
C       19.66662408      22.66061796       3.52548979
C       17.34387718      22.27665574       2.18239555
C       16.41389051      23.28163533       1.98967383
C       17.04574754      24.56669647       1.67507154
C       16.96139068      25.54536805       2.67730438
C       18.15156148      25.97089254       3.33302349
C       18.21245559      26.05171206       4.73340199
C       19.34055443      25.47951910       5.43422878
C       19.05083361      24.55361052       6.48044153
C       19.62509003      23.25641668       6.20642151
C       18.66843553      22.48416833       5.63884190
C       18.50408451      22.65588791       4.21890144
C       17.53913049      21.97512102       3.57105243
C       15.24461492      23.26778337       2.89476100
C       14.84169095      24.56554956       3.38992173
C       15.76107676      25.66171478       3.36052842
C       15.78052193      26.30443640       4.61769522
C       16.99536398      26.29495967       5.38875688
C       16.74158231      25.66158302       6.61404968
C       15.33241283      25.41441947       6.64344344
C       14.76628516      25.71932923       5.38627717
C       14.16634697      24.66291819       4.61521492
C       17.66333525      24.66312544       7.10920921
C       14.83226352      24.31708558       7.32666678
C       13.86810273      23.49979045       6.67094744
C       13.76765473      23.48753443       5.27056900
C       13.69827336      22.22452351       4.56974116
C       14.64484826      22.01182720       3.52352796
C       15.48033796      20.86533708       3.79754700
C       16.62775464      21.30691388       4.36512675
C       16.56137358      21.53515023       5.78506741
C       17.63375176      22.02970563       6.43291641
C       17.47046129      22.34967837       7.82157357
C       17.06601285      23.65783749       8.01429612
C       15.63725440      23.75414236       8.32889896
C       13.29788703      22.46105666       7.36867269
C       12.75973872      21.35985223       6.64271105
C       13.22431189      21.07361773       5.33181213
C       13.72881185      19.71841574       5.08096958
C       15.02210243      19.69884296       4.56823106
C       15.87497875      19.46717849       5.66324989
C       15.97531936      20.53112728       6.47847834
C       16.28465879      20.33170948       7.84824984
C       16.75714203      21.35118688       8.59947023
C       15.79404590      21.68393913       9.59391866
C       14.97855378      22.72958716       9.13139868
C       13.65015878      22.32527345       8.72355740
C       12.11078824      20.35709289       7.35732880
C       15.09781089      20.56483321      10.31595531
C       13.66475525      20.51584905      10.34875123
C       12.95522014      21.32646832       9.44536221
C       12.00000000      20.50382681       8.76171391
C       13.43055885      18.67860718       6.11197639
C       12.37534424      18.99680489       7.04571388
C       12.24432946      18.27691762       8.26070341
C       12.04983639      19.20973498       9.32011157
C       12.99987524      19.23525116      10.36189741
C       16.40069279      18.24942126       6.09920311
C       15.59100962      17.16746121       5.94378239
C       14.18916143      17.38161174       6.32980889
C       13.73436577      16.54075012       7.40794535
C       13.04139535      17.13915308       8.49707079
C       13.49619213      16.90703176       9.82841329
C       13.70297183      18.04231770      10.66401067
C       14.98031275      18.20530744      11.18128845
C       15.74357095      19.30315406      10.58910854
C       16.74658837      18.89105056       9.71868402
C       16.54831987      19.08773168       8.31159899
C       17.09847997      18.27193389       7.35393421
C       16.28325641      15.94674195       6.32268629
C       15.50273065      14.92256296       6.83996663
C       14.41642305      15.31187602       7.67556593
C       14.38970067      14.80196964       9.00690919
C       14.21857290      15.70142006      10.09603392
C       15.17416151      15.67419919      11.17416888
C       15.69053285      16.99495718      11.56019330
C       17.03248855      17.15426203      11.40477090
C       17.40128362      17.74705173      10.15003809
C       17.83209231      16.86240124       9.19237333
C       17.76108099      17.13249617       7.78528833
C       17.61572593      16.05790560       6.91486376
C       16.18346648      13.71672958       7.14208005
C       15.68579608      12.90707255       8.18386814
C       14.97563694      13.54240591       9.24327691
C       18.38467616      14.86729393       7.18801548
C       17.62489226      13.65124447       7.15522321
C       15.91719531      14.36822209      11.39200173
C       15.66441801      13.29545304      10.45826543
C       16.70955961      12.38547949      10.14664954
C       16.78112174      12.21611618       8.74226451
C       17.97144390      12.63122281       8.05861321
C       16.96664411      14.10589308      12.42300731
C       17.88726927      12.99075102      12.17216361
C       17.90249269      12.44529021      10.86126494
C       19.12517837      12.35989904      10.13530109
C       19.18397552      12.73282405       8.78041538
C       20.19896809      13.68039461       8.37257037
C       19.70199784      14.90979581       7.91005033
C       19.89605950      15.91010461       8.90449856
C       18.77699476      16.01142611       9.65572083
C       18.79477762      15.64381193      11.02549317
C       17.82350910      16.08955800      11.84072339
C       17.59711388      15.23527028      12.93574393
C       19.12085178      12.82491588      12.93423257
C       20.24894930      12.25272353      12.23340295
C       20.30983980      12.33354275      10.83302418
C       21.50000931      12.75906617      10.17730175
C       21.41565031      13.73773636       9.17506783
C       22.04750733      15.02279822       9.48966778
C       21.11752026      16.02777653       9.68239220
C       20.92227048      16.32931026      11.07104956
C       19.95731930      15.64854225      11.71890131
C       19.79297181      15.82026415      13.13884198
C       18.83631844      15.04801792      13.70642560
C       19.41057480      13.75082414      13.98044498
C       21.46604274      12.00947637      12.88875499
C       22.68088302      12.00000000      12.11769051
C       22.70032487      12.64272074      10.86052330
C       20.79807470      13.64130962      14.60920950
C       21.71982722      12.64285316      14.11404718
C       23.21678491      15.03665193      10.39475223
C       23.61971028      13.73888651      10.88991370
C       24.29505687      13.64151948      12.11520557
C       23.69512132      12.58510828      12.88626971
C       23.12899666      12.89001799      14.14343727
C       23.81655135      16.29260933      11.02351734
C       24.76312811      16.07991480      12.06972917
C       24.69374924      14.81690422      12.77055806
C       24.59330475      14.80464891      14.17093680
C       23.62914696      13.98735249      14.82665915
C       22.82415827      14.55029488       0.82889348
C       21.39539898      14.64659857       0.51429404
C       20.99094997      15.95475717       0.32157040
C       20.82765704      16.27472782      13.93291331
C       21.90003279      16.76928413      13.28506149
C       21.83364675      16.99752001      11.86512093
C       22.98106064      17.43909852      11.29753749
C       25.23708936      17.23082181      12.83179855
C       25.70166583      16.94458885      14.14269665
C       25.16352110      15.84338378      14.86866017
C       24.81125310      15.97916685       1.22354594
C       23.48285979      15.57485135       1.63139098
C       22.66736743      16.62049876       2.09391168
C       21.70427001      16.95324966       1.09946442
C       22.17675116      17.97272702       0.34824249
C       22.48608659      17.77330893      13.97847007
C       22.58642143      18.83725721      13.16324041
C       23.43929576      18.60559396      12.06821972
C       24.73258713      18.58602313      12.58095605
C       26.35061647      17.94734968      14.85731223
C       26.46140864      17.80061675       1.26169711
C       25.50619181      16.97797386       1.94534833
C       25.03084005      19.62583251      13.61196204
C       26.08605737      19.30763709      14.54569723
